32      4       
11      19      16      20      
0       0       0       0       0       1       2       
10      1       3       2       1       1       3       
2       8       1       1       2       1       4       
8       1       10      2       1       2       5       8       
1       1       1       1       1       1       6       
10      1       1       5       5       1       7       
5       3       1       2       1       1       9       
1       1       6       6       6       1       9       
9       5       1       5       5       2       10      15      
8       1       1       12      6       1       11      
4       1       1       1       1       2       12      25      
3       2       7       13      1       1       13      
3       1       1       1       1       1       14      
5       1       14      1       1       1       16      
1       1       2       1       1       1       16      
9       3       7       1       2       1       17      
3       1       5       3       1       2       18      23      
1       1       8       1       6       2       19      20      
9       2       13      1       8       1       21      
6       1       1       1       1       1       21      
9       5       2       9       1       1       22      
7       1       1       1       3       1       24      
5       1       2       2       7       1       24      
5       1       1       1       18      2       26      27      
8       4       1       1       1       2       26      27      
9       3       2       7       5       1       28      
3       1       4       5       17      1       28      
6       8       1       3       2       1       29      
4       1       7       1       9       1       30      
7       1       8       1       5       1       31      
5       4       1       5       1       1       32      
0       0       0       0       0       0       
